solution/p_5_2.txt_600.row.log
CPXPARAM_TimeLimit                               600
CPXPARAM_WorkMem                                 4096
CPXPARAM_Threads                                 1
Found incumbent of value 0,000000 after 0,00 sec. (0,00 ticks)
Tried aggregator 2 times.
MIP Presolve eliminated 13 rows and 27 columns.
MIP Presolve modified 43 coefficients.
Aggregator did 2 substitutions.
All rows and columns eliminated.
Presolve time = 0,00 sec. (0,05 ticks)

Root node processing (before b&c):
  Real time             =    0,00 sec. (0,06 ticks)
Sequential b&c:
  Real time             =    0,00 sec. (0,00 ticks)
                          ------------
Total (root+branch&cut) =    0,00 sec. (0,06 ticks)
